p tw 192 221
1 2
2 105
3 14
4 5
5 6
6 7
6 21
7 8
8 9
9 10
10 11
10 13
11 12
12 68
13 15
14 25
15 16
16 17
17 18
18 19
18 21
19 20
20 68
21 22
22 23
23 24
23 33
24 26
25 36
26 27
27 28
28 29
29 30
29 33
30 31
31 32
32 33
33 34
34 35
35 37
36 47
37 38
38 39
39 40
39 44
40 41
41 42
42 43
43 51
44 45
45 46
46 48
46 51
47 58
48 49
49 50
50 51
51 52
52 53
52 61
53 54
54 55
55 56
55 61
56 57
56 61
57 59
58 69
59 60
60 61
60 65
61 62
62 63
63 64
64 65
65 66
66 67
67 103
68 70
69 80
69 91
70 71
71 72
72 73
73 74
74 75
75 76
76 77
77 78
78 79
78 100
79 81
80 91
81 82
81 85
82 83
83 84
84 85
84 90
85 86
86 87
87 88
88 89
89 100
90 92
91 102
92 93
93 94
94 95
95 96
95 98
96 97
97 98
98 99
99 100
99 72
100 101
101 103
102 106
102 108
103 104
105 116
106 107
106 108
107 103
108 109
109 110
110 111
110 114
111 112
112 113
112 114
113 114
114 115
115 117
116 127
117 118
117 121
118 119
119 120
119 121
120 121
121 122
122 123
123 124
124 125
125 126
125 155
126 128
127 138
128 129
129 130
130 131
130 133
131 132
132 140
133 134
134 135
135 136
136 137
137 139
137 155
138 149
139 140
140 141
141 142
142 143
143 144
144 145
145 146
146 147
147 148
148 150
149 160
150 151
151 152
152 153
153 154
154 103
155 156
156 157
157 158
158 159
159 161
160 171
161 162
161 166
162 163
163 164
164 165
165 103
166 167
167 168
168 169
168 4
169 170
170 172
171 182
172 173
173 174
173 178
174 175
175 176
176 177
177 103
178 179
179 180
180 181
181 183
182 3
183 184
183 4
184 185
185 186
186 187
187 188
188 189
189 190
190 191
191 192
192 103
